43
16
0 16 17 18 19 20 22 23 24 26 27 28 30 38 39 40 41 42
1 16 17 18 19 24 26 27 28 30 32 33 35 39 41
2 16 17 18 19 20 24 25 28 29 30 32 40 41
3 16 17 18 19 24 25 26 27 28 30 34 37 38 39 41 42
4 16 18 20 23 24 25 26 27 32 33 35 40 41
5 17 18 20 21 23 25 27 28 30 32 37 39 41 42
6 17 18 20 24 28 30 32 35 38 42
7 16 19 21 22 23 24 25 26 30 32 33 35 39
8 16 17 19 20 25 27 30 41
9 17 19 25 26 28 31 37 39 40 41
10 16 17 19 23 28 38 39 40 41
11 19 21 23 24 26 29 33 38
12 19 29 33 41 42
13 20 27 30 33
14 24 26 30 32 36
15 35
